147
1000000
310220
23983
265243
82808
23542
5040
322183
123503
79490
148853
20522
204002
64903
285032
150501
263752
6651
118332
489915
226815
115753
236278
274722
420495
264534
47164
41648
55675
44878
104544
6170
293742
107882
95048
160515
38306
410421
300032
73580
137879
1355
416161
246683
75586
181738
342668
437070
478772
238556
328853
412441
335501
177002
301905
46531
276541
243138
37056
268739
485634
317061
57586
287892
101754
94015
318334
199477
282005
233840
111128
52830
70260
81551
7958
485752
426176
90383
146016
307815
162806
285459
103862
74660
244066
257810
5253
262491
161157
20582
423423
4707
238321
208
224090
54169
37583
165152
179665
216163
82225
58507
426017
196472
223418
164510
439815
112650
162921
92587
180128
312112
314050
202375
354279
184079
414798
156568
473307
332318
454351
316546
39831
159892
9950
209724
217937
327226
104955
310294
198207
276586
454373
154229
271320
181475
455005
13319
262047
8549
407755
135917
136908
456323
225685
279556
418512
60446
